NaCl rock salt structure
1.0
2.820000  0.000000  0.000000
0.000000  2.820000  0.000000
0.000000  0.000000  2.820000
Na Cl
1 1
Direct
0.000000  0.000000  0.000000
0.500000  0.500000  0.500000
