Cs   Pb    I   Br
   1.0000000000000000     
  16.8815766317114004   0.0000000000000000   0.0000000000000000
   0.0000000000000000  17.3358822854753996   0.0000000000000000
   0.0000000000000000   0.0000000000000000  24.4833477746535983
Cs   Pb    I   Br
32  32  63  32  
Direct
  0.5129268991162543  0.2162269408616312  0.1286338278675914  
  0.4896167902141046  0.2242164215836581  0.6161702134033800  
  0.4840819414944539  0.7198263459437132  0.1204158671671101  
  0.4910425619794930  0.7207764769689652  0.6277399725405267  
  0.9862280523997163  0.2242773612061351  0.1260006818324494  
  0.9847940128265216  0.2083755186584960  0.6182804056856397  
  0.0017160551472710  0.7100064570542716  0.1283383286931301  
  0.9831834861415484  0.7312812134671491  0.6219177206469247  
  0.0133976508456947  0.2816631522018812  0.3877231915473212  
  0.0195673232644231  0.2787382228703275  0.8805816269167456  
  0.9942640637180935  0.7767285780047501  0.3710205104076041  
  0.0103854556569539  0.7926433091812818  0.8779377737409838  
  0.5011382409507114  0.2718797752341149  0.3788293972089135  
  0.4948564827197996  0.2723420256914855  0.8777705976287361  
  0.5161042492151420  0.7853590335193638  0.3788573777256575  
  0.4877434753346760  0.7835835214417536  0.8768057182572327  
  0.2785257077463334  0.4611499258376570  0.1139548087353511  
  0.2634871116861627  0.4622065457192988  0.6260443571710308  
  0.2462181572149736  0.9609064590425660  0.1294315989239088  
  0.2504140920000668  0.9801617274639276  0.6131693477897671  
  0.7410657147000774  0.4696936805781969  0.1354717261248825  
  0.7652625313709703  0.4741833808605437  0.6277795439130083  
  0.7702265803316539  0.9737175653834527  0.1231580099071270  
  0.7706342672195502  0.9473121543813682  0.6237118950062908  
  0.2431517908836749  0.0490295486883170  0.3704510864868789  
  0.2241603739176419  0.0355937316394266  0.8865801819520133  
  0.2412897454288170  0.5190353863464509  0.3829930535538369  
  0.2406380427368438  0.5516969779689418  0.8732417081107372  
  0.7402385485644485  0.0173585366735507  0.3716408768235152  
  0.7466644464401679  0.0400256342237912  0.8768749902224935  
  0.7417555355839049  0.5413964684916168  0.3691835792397221  
  0.7370903540006025  0.5369259015925930  0.8787719285116081  
  0.9952300571997671  0.0061343806070844  0.2505626983149214  
  0.9953308540911308  0.9938908280299138  0.7491384896015151  
  0.9865997039585546  0.5065139775771057  0.2473631257484205  
  0.9977089369595541  0.5051901740655528  0.7531085305396116  
  0.5039690587448505  0.9925546049520996  0.2482271744416900  
  0.5002252681178736  0.9935124265797330  0.7502055473770181  
  0.4902412831372195  0.4907665996421424  0.2505443463508398  
  0.5028889606602430  0.5003346389034886  0.7497972389301011  
  0.0052853736028413  0.0086686834730057  0.0089324554392029  
  0.9910654969256102  0.9893196885675382  0.4904308804763004  
  0.9992229769408273  0.4932381244389605  0.0038016975170835  
  0.9985852794370659  0.4923152657103324  0.5043059484849460  
  0.4960465367694578  0.9948011108151941  0.9996695937538984  
  0.5157964099605481  0.0050436089252805  0.4997111303880269  
  0.5027371130212878  0.4989994223874169  0.0049458469504959  
  0.5010078020926403  0.5018156039802719  0.4916188983557491  
  0.2470558972153312  0.2471955129292182  0.0010996263706902  
  0.2521862741412768  0.2614394957400679  0.4992933245568671  
  0.2456950500958506  0.7623413260732670  0.0012909774261711  
  0.2496452298112320  0.7514828968582992  0.4979533101041947  
  0.7626643588995806  0.2485593290998051  0.0054301596543948  
  0.7523077695585880  0.2498759978842548  0.4981393949644556  
  0.7566698891438943  0.7496155746731236  0.9967085649522431  
  0.7429992868201565  0.7499020419725014  0.4947298294131754  
  0.2507739521461898  0.2565213564877566  0.2365557483390531  
  0.2501366345375399  0.2473242680708543  0.7559313767872634  
  0.2377834172633213  0.7424458868810832  0.2475203054302489  
  0.2554885515882613  0.7598604466740526  0.7531948393001324  
  0.7622130638766451  0.2472231270500852  0.2468115288432044  
  0.7524400183892375  0.2501404063265459  0.7509196143307068  
  0.7435977028049202  0.7515767507498353  0.2506677320096267  
  0.7623054138210377  0.7447303322309633  0.7571659847340318  
  0.0922686533153877  0.1632758715767643  0.2677490214772692  
  0.0883566371020763  0.1529791192161813  0.7607146076213945  
  0.0954379856072720  0.6619755537910320  0.7691108270612286  
  0.6071703375204117  0.1456634542852022  0.2673261608972038  
  0.5966339296259104  0.1503042373268073  0.7712715453230855  
  0.5887404454085905  0.6464614941725317  0.2670006954235047  
  0.5985972378579918  0.6552764305318381  0.7737400510515542  
  0.4100250786399031  0.3389952002620769  0.0195105440354260  
  0.4047361772427919  0.8570699598189416  0.5181197301214964  
  0.9103277870470198  0.8509665906813441  0.0233507398306313  
  0.1613946567943361  0.4058204219897674  0.9751515921500654  
  0.1514979453747244  0.9003341335969698  0.4669315460158370  
  0.6549223424013008  0.4011329047147542  0.4725978968856337  
  0.6590048729380087  0.4013093868942640  0.9900368559085729  
  0.6520495721295281  0.8971255258490420  0.9730793771746643  
  0.3504753319894612  0.1072847071601643  0.2299405885550453  
  0.3490347967666331  0.0960238184812161  0.7258114307716369  
  0.3276043385023198  0.5816499273017929  0.2358510224768798  
  0.3474266213454676  0.6010183808038387  0.7320905443684645  
  0.8400629135158146  0.0906617137182206  0.7284933653051485  
  0.4070276510017787  0.3437597533969232  0.7333041197866081  
  0.3952233607061788  0.8437357249348411  0.2327131628108323  
  0.9098952591112957  0.3467428000945067  0.7273700115427650  
  0.8999932747076465  0.8495327844139449  0.2288103127325705  
  0.1035490180926394  0.1407406100363309  0.4858825584823145  
  0.0946026779699159  0.6501262437934973  0.4809986432251670  
  0.0946929348813821  0.6527178032575034  0.9837259300394127  
  0.6043594398361830  0.1477400036251694  0.9849339668842035  
  0.5978728793320119  0.6536143540130306  0.9801575103473172  
  0.3472712943148372  0.0978344610702086  0.0312550734747240  
  0.3589492878804585  0.1101864389673493  0.5086115577086491  
  0.3489830227483496  0.6087289960168670  0.0125139126674996  
  0.3478172353963227  0.5989085375479631  0.5201061643863188  
  0.8400764123582285  0.0901693008149232  0.5173634973468617  
  0.8476496942204022  0.5941650453102758  0.0308918790774144  
  0.8448277674669069  0.5972481656645849  0.5101940805498191  
  0.1565208548068855  0.4048010012578747  0.7727923918228181  
  0.1485517033412574  0.9019529475905432  0.2723776449773406  
  0.1629245239018728  0.9151402863989740  0.7659969186348428  
  0.6476404892447917  0.3916696331435808  0.2715548594088000  
  0.6600071893062491  0.4059086591417326  0.7688481661844638  
  0.6593756121711639  0.8967390078457591  0.7745055882047561  
  0.4634109153414671  0.4933955687525236  0.8773497325064263  
  0.4666979830014367  0.0043418337068975  0.3743142698815359  
  0.4473584909525625  0.0053405031094803  0.8749651643829943  
  0.9710356432138151  0.4953281201744138  0.3746838215688958  
  0.9560884534248758  0.4950534247629629  0.8785881992497837  
  0.9734036314041747  0.0121240234795218  0.8792611947037934  
  0.0224760283568716  0.9778139309202949  0.6200417250521443  
  0.0558571528572301  0.4865830455889510  0.1287315081207291  
  0.0416581333879477  0.5146592190391582  0.6271683845998386  
  0.5466746844535429  0.9891123998662816  0.1237258762613516  
  0.5525366767376332  0.0057533435514241  0.6257799067804213  
  0.5368074408691708  0.4972526812150314  0.6203111857548914  
  0.2661631548210728  0.2825651596646760  0.3672174423751253  
  0.2927735048552392  0.7349679367742747  0.3722181939470005  
  0.7983561351659489  0.2348515822991953  0.3727695844915311  
  0.7954329356306440  0.2560320888619440  0.8778314369789862  
  0.2144462374943071  0.2471334914904744  0.6256565354732894  
  0.2129150723848903  0.7605796464221314  0.6264395919703528  
  0.7121626517881284  0.2564613383898393  0.6242542811201175  
  0.7081486262340912  0.7555285082807913  0.1238422385019759  
  0.7217142906335058  0.7346493449489775  0.6261113729405516  
  0.0882905038325972  0.6495421993234957  0.2661377607745561  
  0.3982215518425469  0.3572663387229622  0.5140305376361810  
  0.3971683578804042  0.8513899176003279  0.0178877340925499  
  0.9084217415086598  0.3460936224269019  0.0199132404684945  
  0.9024462653059946  0.3461579031348538  0.5190650363143349  
  0.8941593729461221  0.8435006352356273  0.5072190374367258  
  0.1476260133983518  0.4003531471408041  0.4893561026239324  
  0.1497863225192910  0.9083022862097956  0.9910347943155295  
  0.6528789751103500  0.8984984425390133  0.4808955403932325  
  0.8492969404854489  0.0989885005725103  0.2282674837995973  
  0.8486435013393934  0.6006750451051874  0.2315659472879063  
  0.8502034837870540  0.5964711960920716  0.7336310265780217  
  0.3999208431328496  0.3461800121730065  0.2192059169312527  
  0.4081342720066087  0.8456229115640952  0.7346119027186987  
  0.9012436906812124  0.3561707672564349  0.2320401928569508  
  0.9061799599980650  0.8432870469437409  0.7374281647788743  
  0.0988292897810593  0.1542754518353047  0.9892758221068894  
  0.6064159939616264  0.1534382692118146  0.4788272974051974  
  0.5979567119854976  0.6479409307787237  0.4763193344142851  
  0.8562096458826440  0.1020230050481043  0.0217853618422662  
  0.6468146738262794  0.8913349355837296  0.2689434553414530  
  0.4581469532704707  0.4827017442896644  0.3715551455417395  
  0.9555033601271931  0.9927545358068299  0.3704403960051442  
  0.0348683508663552  0.0148025760025829  0.1295336797349605  
  0.5230937893589981  0.5076090684541646  0.1281228960642153  
  0.2778517693004974  0.2356997679683537  0.8783454534809897  
  0.2721646718591784  0.7608797410755083  0.8787061154922238  
  0.7746643257257749  0.7519341899989920  0.3735931690336883  
  0.8015465853652487  0.7373879712060732  0.8771805552337543  
  0.2015856807378085  0.2650874852375875  0.1202746830445147  
  0.2149130275855592  0.7532422567071100  0.1241425674570727  
  0.7290602172632864  0.2553361984504285  0.1259866754742864  
